letting n =  10
letting blocks =  [[1, 3], [1, 4], [1, 5], [1, 6], [1, 7], [1, 10], [2, 1], [2, 2], [2, 4], [2, 5], [2, 6], [2, 9], [3, 2], [3, 3], [3, 4], [3, 6], [3, 7], [4, 3], [4, 4], [4, 7], [4, 8], [4, 9], [4, 10], [5, 1], [5, 2], [5, 3], [5, 6], [5, 8], [5, 10], [6, 1], [6, 2], [6, 3], [6, 4], [6, 8], [6, 10], [7, 2], [7, 5], [7, 6], [7, 8], [7, 9], [7, 10], [8, 1], [8, 2], [8, 5], [8, 7], [8, 8], [8, 9], [9, 1], [9, 5], [9, 6], [9, 8], [9, 10], [10, 1], [10, 3], [10, 4], [10, 7]]
